<number of tasks>
50

<cycle time>
1000

<order strength>
0.197


<task times>
1 67
2 198
3 176
4 82
5 55
6 121
7 38
8 46
9 143
10 77
11 105
12 249
13 81
14 198
15 158
16 303
17 231
18 211
19 33
20 119
21 142
22 164
23 169
24 72
25 170
26 86
27 111
28 105
29 33
30 250
31 238
32 153
33 55
34 107
35 186
36 68
37 147
38 117
39 233
40 112
41 86
42 182
43 224
44 62
45 64
46 206
47 216
48 124
49 82
50 48

<precedence relations>
1,32
2,8
2,11
3,9
3,13
4,10
4,12
5,14
8,17
9,16
10,18
10,30
12,15
13,19
15,32
16,22
17,23
18,24
19,20
19,21
19,25
20,32
21,32
22,27
23,28
24,29
25,26
25,30
25,31
26,32
27,35
28,33
29,34
30,36
32,37
32,38
32,39
32,40
33,41
34,42
36,43
37,46
38,48
38,49
38,50
40,47
41,45
42,44

<end>
